c Random generated cnf formula, satisfiable: true
p cnf 10 50
8 9 4 0
-8 -3 4 0
-4 7 9 0
-9 3 7 0
-2 4 10 0
-5 2 10 0
3 -10 1 0
-2 7 5 0
1 4 -8 0
6 2 3 0
-3 2 -1 0
10 5 -4 0
-6 4 2 0
-8 -6 -3 0
-5 8 4 0
-10 -1 2 0
-5 -3 -2 0
-7 2 -4 0
-2 5 -8 0
10 8 1 0
-1 10 8 0
-6 9 5 0
2 5 -7 0
-8 4 -2 0
9 4 3 0
-6 -8 -5 0
4 5 -1 0
9 2 -5 0
6 4 3 0
8 -10 3 0
7 -1 -10 0
-6 4 -3 0
6 8 -10 0
5 2 4 0
-10 5 7 0
9 10 6 0
-7 -6 8 0
-10 -2 8 0
-7 10 -9 0
5 2 -1 0
-6 8 -7 0
4 -1 8 0
-9 10 5 0
8 -3 -4 0
-1 -10 -8 0
-6 -9 7 0
4 -3 2 0
5 10 4 0
-2 7 5 0
10 -4 5 0
